\ENCODING=ISO-8859-1
\Problem name: IloCplex

Minimize
 obj: 26 x1 + 38 x2 + 67 x3 + 33 x4 + 29 x5 + 37 x6 + 39 x7 + 10 x8 + 27 x9
      + 49 x10 + 38 x11 + 25 x12 + 19 x13 + 30 x14 + 50 x15 + 44 x16 + x17
Subject To
 c1: x1 + x2 + x3 + x4 <= 20
 c2: x5 + x6 + x7 + x8 <= 15
 c3: x9 + x10 + x11 + x12 <= 10
 c4: x13 + x14 + x15 + x16 <= 7
 c5: x1 + x5 + x9 + x13 >= 20
 c6: x2 + x6 + x10 + x14 >= 8
 c7: x3 + x7 + x11 + x15 >= 9
 c8: x4 + x8 + x12 + x16 >= 4
Bounds
      x1 >= 0
      x2 >= 0
      x3 >= 0
      x4 >= 0
      x5 >= 0
      x6 >= 0
      x7 >= 0
      x8 >= 0
      x9 >= 0
      x10 >= 0
      x11 >= 0
      x12 >= 0
      x13 >= 0
      x14 >= 0
      x15 >= 0
      x16 >= 0
      x17 = 0
Generals
 x1  x2  x3  x4  x5  x6  x7  x8  x9  x10  x11  x12  x13  x14  x15  x16 
End
